c File: instances/10_0.30_3.col
c
c Description: Random graph of size 10 vertices and P(0.3) of edges between any two vertices.
p col 10 45
e 1 2
e 1 6
e 1 9
e 2 9
e 3 4
e 3 8
e 4 5
e 4 6
e 4 9
e 5 8
e 5 10
e 6 9
e 7 9
e 8 9
e 9 10